
 102   30
  10   10   10   10   10   10   10   10   10   10   10   10   10   10   10   10   10   10   10   10   10   10   10   10   10   10   10   10   10   10

   0   0   0   0   0   0   0   0   0   0   0   0   0   0   0   0   0   0   0   0   0   0   0   0   0   0   0   0   0   0   0  24 2 3 4 5 6 7 8 9 10 11 12 13 15 16 18 19 20 23 24 26 27 34 36 44 
   6   0   0   0   0   0   0   0   0   2   0   0   1   1   0   1   0   0   0   0   0   2   0   0   0   2   0   0   0   0   0  20 71 70 64 63 62 61 59 57 56 53 51 50 47 46 45 43 42 38 31 30 
   6   0   0   0   0   0   0   0   1   5   2   2   0   0   0   0   0   0   0   0   0   0   0   0   0   5   0   0   0   0   0   9 71 63 62 51 40 39 28 21 14 
   9   0   0   1   0   0   0   0   0   0   4   0   0   0   0   0   0   4   0   0   0   0   0   0   0   0   0   1   0   0   0  13 71 70 68 61 58 49 47 46 45 42 32 25 22 
   9   0   0   0   0   0   1   0   0   0   4   0   0   0   0   0   0   0   0   0   0   0   0   0   0   4   3   3   1   0   0  11 63 62 61 60 58 51 49 40 39 33 17 
   8   0   0   0   0   1   0   0   0   0   0   0   0   3   0   5   0   7   0   0   0   0   0   0   0  10   0   0   0   0   0  16 70 69 67 64 63 61 59 55 50 48 46 45 43 39 31 30 
   6   0   0   0   0   0   4   0   0   0   0   0   0   0   0   0   0   0   0   0   0   0   0   0   0   0   0   5   0   0   0  11 99 68 63 62 51 49 42 39 35 31 21 
   8   0   1   0   1   0   0   2   0   0   0   5   0   0   0   7   0   0   1   1   0   3   0   0   0   0   4   0   0   0   0  11 100 71 70 57 46 45 42 37 30 29 28 
  10   0   0   0   0   0   0   0   0   0   0   0   0   0   0   4   3   0   0   0   0   0   2   0   0   0   0   0   0   0   0  14 100 71 70 69 64 63 62 61 60 56 55 47 39 21 
   6   1   0   0   0   0   0   0   8   0   7   0   0   0   0   0   0   0   0   0   0   0   0   0   1   0   0   0   0   0   3  13 100 89 71 70 61 55 52 51 46 45 41 37 30 
  10   4   0   0   0   0   0   0   0   0   0   0   0   0   3   0   4   6   0   3   0   0   0   1   0   0   0   0   0   0   0  16 98 95 92 68 65 64 62 59 56 53 52 51 49 47 42 37 
   6   0   0   0   0   0   0   0   0   0   0   0   0   0   0   0   6   0   0   0   0   0   7   0   0   0   0   0   0   0   4  11 95 70 64 61 52 50 47 42 37 32 30 
   1   0   0   8   0   3   0   0   0   0   0   0   0   5   0   0   0   0   0   0   0   0   0   0   0   0   3   0   0   3   0  16 98 95 94 93 91 69 68 63 59 52 50 49 47 46 45 43 
   2   0   0   0   0   0   0   0   5   0   0   0   0  10   4   0   0   0   0   0   0   0  10   0   0   0   0   0   0   5   0   8 100 61 60 48 47 45 42 30 
   8   0   0   0   0   0   0   0   0   0   0   0   6   0   0   0   0   0   0   9   0   0   0   0   3   0   0   0   0   5   0  18 98 95 94 93 91 85 84 71 69 68 67 63 61 59 55 49 47 45 
   1   3   4   0   0   8   0   0   0   0   0   0   0   0   5   6   0   0   4   0   0   0   0   0   0   0   0   0   0   0   0  19 101 100 97 92 89 88 81 80 71 68 67 66 62 59 54 53 50 48 42 
   3   0   0   0   0   0   0   0   0   0   0   5   0   0   0   0   0   0   0   0   0   8   0  10   0   0   9   0   0   0   0  16 101 100 98 95 92 91 87 80 71 70 67 65 59 50 47 42 
   4   0   0   0   0   0   0   0   0   8   0   0   0   0   0   0   0   0   0   0   0   7   0   0   0   0   0   0   0   0   0  22 101 99 98 96 92 90 89 88 87 84 83 81 70 68 67 66 65 64 59 52 50 48 
   2   8   0   0   0   0   0   0   0   0   0   0   0   0   0   0   0   0   0   0   0   0   0   0   0   0   0   0   0   7   0  14 100 98 97 93 91 88 69 67 61 60 52 49 46 39 
   1   0   0   6   0   0   0   0   0   0   0   0   8   0   8   0   5   0   0   0   1   0   0   0   0   0  10   0   0   0   0  18 100 98 96 94 92 91 87 85 82 80 70 68 66 65 62 55 51 47 
   9   0   0   0   6   0   0   0   0   0   0   0   0   0   0   0   0   0   0   4   7   0   0   0   0   0   6   0   0   0   0  14 98 97 94 93 89 88 84 81 67 59 52 50 46 45 
   7   0   0   0   0   0   0   0   0   0   0   0   0   8   0   0   0   0   0   0   0   0   0   0   3   0   0   0   0   4   0  19 100 99 96 95 94 93 91 90 89 88 87 84 80 66 65 59 55 53 50 
   9   0   0   0   0   0   0   0   0   0   0   8   0   0   0   0   0   0   0   0   0   3   0   0   0   0   0   0   0   0   0  17 98 96 91 90 89 88 87 85 83 79 77 70 66 65 63 61 43 
   8   0  10   0   0   0   0   0   0   0   0   0   0   0   0   0   0   0   0   0   0   0   5   0   0   0   0   0   0   0   0  23 100 97 95 94 92 91 90 88 87 86 82 80 79 78 77 76 75 70 69 68 67 65 56 
   7   0   0   0   0   0   0   0   0   0   0   0   9   0   0   0   0   0   7   0   0   0   0   0   6   0   0   0   0   0   0  16 99 97 96 95 92 90 89 85 81 79 69 67 66 60 55 52 
  10   0   0   0   0   0   0   0   0   0   0   0   0   0   0  10   0   0   0   0   0   0   0   0   0   0   0   4   0   0   0  20 98 95 93 92 90 89 88 85 84 83 78 77 75 74 73 71 69 66 64 61 
   1   0   0   6   0   0   0   0   0   0   0   0   0   0   0   0   0   0   0   0   0   0   0   0   0   0   6   9   7   7   0  17 96 94 93 92 91 90 89 88 85 84 79 74 70 65 61 55 53 
   8   0   0   0   0   0   0   0   0  10   0   0   0   0   0   0   0   0   0   0   0   0   0   0   0   6   0   0   0   0   0  14 99 98 94 90 84 83 81 80 78 76 67 65 50 48 
   5   0   0   0   0   0   5   0   0   0   0   0   4   0   0   8   0   0   0   0   0   0   0   0   0   0   0   0   0   0   0  16 101 95 94 90 89 88 87 84 81 79 73 68 66 65 64 55 
   3   0   0   0   0   0   8   0   0   0   0   0   0   0   0   0   0   0   0   0   4   0   0   0   0   0   0   0   0   0   0  15 99 98 97 96 93 92 91 88 85 83 81 80 72 68 49 
  10   0   0   0   0   3   0   0   0   0   0   0   0   0   0   0   0   0   0   0   0   0   0   8   0   0   0   0   0   0   0  17 100 97 93 92 91 87 86 85 83 81 80 79 78 77 76 65 60 
   2   0   0   0   0   0   0   0   0   0   0   0   0   0   0   0   0   0  10   0   0   0   0   0   0   9   0   0   6   0   6  16 100 99 98 96 92 89 86 85 84 82 81 80 76 73 65 55 
   6   0   0   7   0   6   0   0   5   0   0   0   0   0   0   0   0   0   0   0   0   0   0   0   0   7   0   0   0   0   0  18 97 94 93 90 89 87 86 85 83 82 80 79 77 75 74 73 72 66 
  10   0   8   0   0   0   0   4   0   0   0   8   0   0   0   0   0   0   0   0   0   0   0   0   0   0   0   0   0   0   0  12 94 91 88 87 84 82 81 80 79 76 73 55 
   5   0   0   0   0   0   0   0   0   0   7   0   0   0   5   0   0   0   0   0   0   0   0   0   0   0   0   9   0   6   0   8 95 91 90 80 72 71 66 50 
   4   0   0   0   0   0   0   0   0   0   0   0   0   0   0   0   0   6   0   0   0   0   0   0   0   0   0   0   0   0   0  12 88 87 86 84 82 81 80 76 75 72 68 59 
   8   0   0   0   0   8  10   0   0   0   0   0   0   0   0   0   0   0   0   0   0   0   0   0   0   0   0   0   0   0   0  12 101 97 91 86 85 81 80 77 76 75 72 60 
   6   0   0   0   0   0   0   0   0   0   0   0   0   0   0   0   0   0   7   0   0   0   3   0   0   0   0   0   4   4   0  13 101 99 97 95 90 87 81 78 77 76 75 74 69 
   4   0   6   0   8   0   6   0   9   0   0   0   0   0   0   0   0   0   0   0   0   0   0   0   0   8   0   0   0   0   0  13 95 92 89 87 86 85 81 79 77 75 74 73 72 
   7   0   0   0   0   7   0   0   0   0   0   0   0   0   0   0   0   0   0   0   0   5   0   0   9   0   0   0   0   0   0  13 98 97 93 91 88 87 81 79 78 76 75 74 73 
   7   0   0   0   8   0   0   0   7   0   0   5   0   0   0   0   0   0   0   0   0   0   0   7   0   0   5   0   0   7   0  10 96 95 88 87 83 82 80 76 65 63 
   1   5   0   0   0   0   0   0   0   0   0   0   7   0   0   5   0   0   0   0   8   0   0   0   6   0   0   5   0   0   0   8 96 94 93 84 76 74 73 55 
   2   0   0   0   0   0   0   0   0   0   0  10   0   0   0   7   0   0   0   0   0   0   0   0   0   0   0   0   0   0   0  11 101 100 97 92 84 81 80 78 76 75 73 
   5   4   0   0   0   0   0   0   4   3   0   0   0   8   0   0   0   0   0   7   0   0   0   0   0   0   0   7   0   0   0  11 101 99 95 87 82 80 78 77 76 75 73 
   5   0   0   7   0   0   0   0   7   0   0   0   0   6   0   4   0   0   6   0   9   0   0   0   9   0   0   0   5   0   0   9 96 92 87 80 79 75 74 73 65 
   5   0   0   1   8   0   0   0   0   0   0   4   0   0   0   7   0   0   0   7   0   0   4   4   4   0   0   0   0   0   0   8 85 83 80 78 74 73 66 65 
   3   0   0   0   0   7   0   0   0   0   0   0   3   8   0   0   0   0   0   9   5   7   0   0   0   0   0   0   0   0   0   8 99 90 89 88 81 78 74 73 
  10   0   0   0   0   0   0   0   0   0   0   0   0   0   0   0   0   5   0   0   0   0   0   7   0   0   5   0   0   0   0   8 95 93 91 82 79 74 73 72 
   3   4   7   0   0   0   0   0   0   0   0   8   0   0   0   0   0   0   0   0   0   0   0   0   0   0   0   0   0   0   0   7 90 87 79 77 74 73 66 
   4   0   0   0   0   0   0   0   0   0   0   0   0   0   0   0   0   0   0   0   0   0   0   0   0   0   3   0   0   6   0   7 86 85 82 77 75 74 73 
   3   0   0   0   0   0   0   0   0   0   0   0   0   0   0   0   0   0   0   0   0   0   0  10   0   4   0   0   0   0   0   5 93 79 76 69 67 
   3   0   0   0   0   0   0   0   0   0   0   0   0   0   0   0   0   0   0   0   0   0   0   0   0   0   8   0   0   0   0   6 86 82 80 76 73 72 
   9   0   0   0   0   0   9   0   0   0   0   0   0   0   0   0   0   0   0   0   0   0   0   0   0   3   9   0   0   0   0   6 86 78 77 75 73 72 
   7   8   6   0   0   0   0   0   0   3   0   0   0   0   0   0   0   0   0   0   0   0   0   0   0   0   0   0   0   0   0   5 91 79 74 73 65 
   8   0   6   0   0   0   0   0   8   0   0   0   0   0   0   0   0   6   0   0   0   0   0   0   0   0   0   0   0   0   0   5 83 78 77 75 72 
   4   0   0   0   0   0   6   0   4   0   0   0   0   0   0   0   0   3   0   0   0   0   0   0   7   0   0   0   0   0   0   5 89 85 83 74 73 
   8   0   0   0   0   0   0   0   0   0   0   0   0   0   0   7   0   0   0   0   0  10   0   0   0   0   0   0   7   0   0   5 88 87 75 74 72 
   4   0   0   0   0   0   6   4   0   0   0   0   0   0   6   0   0   0   0   9   0   0   0   0   0   0   7   0   0   0   6   4 84 78 73 69 
   9   0   0   0   0   8   0   0   0   7   0   0   6   0   0   0   0   0   0   0   0   0   4   0   0   0   0   0   0   0   6   4 79 78 77 74 
   9   0   0   0   0   0   0   0   7   8   0   0   0   4   0   0   0   0   0   5   0   0   0   0   6   0   0   0   7   0   0   3 94 84 73 
  10   7   0   0   7  10   0   0   0   0   0   0   0   0   0   0   0   0   0   0   0   0   0   0   0   0   5   0   0   8   6   3 86 82 81 
   1   9   0   0   0   3   0   8   0   0   0   0   0   0   0   0   0   0   0   0   0   0   0   0   0   0   0   0   0   0   0   3 84 78 72 
   3   0   0   0   0   0   0   6   0   0   0   0   0   0   0   2   0   0   7   0   0   0   0   0   0   0   0  10   0   0   0   2 81 75 
   4   0   0   0   0   0   4   0   0   0   0   0   0   0   0   0   0   0   0   0   0   0   0   0   9   7   0   0   0   0   6   2 82 80 
   8   0   0   0   0   0   0   0   0   0   0   0   0   0   0   0   0   0   0   0   0   0   0   0   9   0   0   0   0   0   0   1 72 
   5   0   0   0   0   0   0   0   0   3   7   0   0   0   0   0   0   0   0   0   0   0   0   0  10   0   0   0   0   0   0   1 76 
   6   0   0   0   0   0   0   0   0   0   0   0   0   0   0   0   0   0   0   0   0   0   0   0   0   0   0   0   5   0   0   1 74 
   9   0   0   0   0   0   8   0   0   0   0   0   9   0   0   0   0   0   0   5   4   5   0   0   0   7   0   0   0   0  10   1 74 
   1   0   0   0   0   6   0   0   0   0   0   0   0   0  10   0   0   0   0   0   0   0   0   0   0   0   0   0   0   0   0   1 72 
   8   0   5   0   0   0   0   0   0   0   0   0   0   0   0   0   0   0   0   0   5   0   0   0   0   0   0   0   0   0   0   1 72 
   1   0   5   0   0   0   0   0   0  10   0   0   0   0   0   0   0   0   0   0   0   0   0   3   0   0   0   0   8   0   0   1 79 
   9   0   0   0   0   0   0   0   0   0   5   0   0   0   0   0   0   0   0   9   5   0   0   0   0   0   0   4   0   0   0   1 102
  10   0   0   0   0   8   0   0   0   0   0   0   0   0   0   0   0   0   0   0   0   0   0   0   9   0   0   0   0   0   0   1 102
   5   9   5   0   0   0   0   0   0   0   7   4   0   0   0   7   5   0   0   0   6   0   0   8   0   0   0   0   6   0   5   1 102
   4   0   7   6   0   0   0   7   0   0   0   0   0   0   0   0   0   0   0   0   0   0   0   0   0   0   0   0   0   0   0   1 102
   5   0   0   0   0   0   0   7   7   0   0   4   0   0   8   0   0   0   0   0   0   0   0   0   0   0   0   0   0   0   6   1 102
   2   0   0   0   5   0   0   0   7   0   0   0   0   4   0   0   0   0   0   0   0   0   0   0   0   0   0   0   0   0   0   1 102
   1   0   2   0   0   0   0   0   0   0   0   0   0   0   0   9   0   0   0   0   0   0   0   0   0   0   0   0   0   0   0   1 102
   3   3   0   0   0   0   0   0   0   8   0   0   0   0   0   7   0   6   0   0   5   7   0   0   0   0   0   0   0   0   0   1 102
   1   0   0   0   0   6   0   0   0   0   0   9   0   0   0   0   0   0   0   0   0   0   0   0   0   0   0   0   0   0   0   1 102
   8   0   0   0   0   0   0   0   6   6   0   0   0   0   0   0   0   0   0   0   0   0   0   0   0   0   0   0   5   0   0   1 102
   5  10   0   0   0   0   0   0   4   0   0   0   0   0   0   0  10   0   0   4   0   0   0   8   0   0   8   0   8   0   0   1 102
   7   0   0   8   0   0   0   0   0   0   0   0   0   0   7   0   0   0   0   0   0  10   0   0   0   0   0   8   0   0   0   1 102
   5   8   0   0   0   0   0   0   8   0   0   0   0   0   0   0   0   0   0   0   0   0   0   0   0   0   0   0   0   0   0   1 102
   9   0   0   0   0   0   0   0   7   0   7   0   0   0   4   0   0   0   0   0   0   0   0   0   0   0   5   0   0   0   9   1 102
   7   0   0   0   0   0   0   0   0   0   0   0   0   0   0   0   0   7   0   0   0   0  10   0   4   0   0   0   0   0   0   1 102
  10   5   0   0   0   0   5   0   0   0  10   0   0   8   0   0   0   0   0   0   0   0   0   0   0   0   0   7   3   0   0   1 102
   7   0   0   0   0   0   0   0   0   6   0   0   0   0   0   0   0   0   0   0   7   0   0   2   0   0   0   0   0   0   6   1 102
   4   0   0   7   0   0   0   0   0   0   0   0   0   0   0   0   0   0   0   0   0   0   0   0   3   0   0   0   8   0   0   1 102
   2   9  10   0   0   0   0   0   0   0   0   0   0   0   0   0   0   9   0   0   8   0   0   0   0   0   0   5   0   0   0   1 102
   8   0   0   0   0   0   0   0   0   0   0   0   0   0   0   0   0   0   0   0   0   0   7   0   0   0   0   0   0   0   5   1 102
   7   0   0   0   5   0   0   0   7   0   0   4   0   0   0   0   0  10   0   0   0   0   0   0   0   0   0   0   0   0   4   1 102
   1   0   0   0   0   0   0   0   0   0   0   0   0   0   0   0   0   0   6   0   0   0   0   0   0   0   0   0   0   0   0   1 102
   6   0   6   0   0   0   0   0   0   0   6   0   0   0   0   6   0   0   0   0   0   0   0   0   0   0   0   0   0   0   0   1 102
   6   0   0   0   0   0   0   0   0   0   0   0   0   0   0   0   0   3   0   0   6   0   0   0   0   0   0   0   8   6   0   1 102
  10   0   0   5   0   0   6   0   3   0   0   5   0   0   0   0   0   0   0   0   0   5   0   0   4   0   0   7   0   0   0   1 102
   8   5   0   0   0   0   0   0   0   0   0   0   0   0   0   0   0   0   0   0   0   0   8   0   0   0   0   0   0  10   0   1 102
   5   0   0   0   0   0   0   0   0   5   0   9   0   5   0   0   0   0   0   0  10   0   0   0   0   0   0   0   0   0   0   1 102
   9   0   0  10   0   0   6   0   0   0   0   0   0   8   0   0   9   0   0   0   0   0   0   0   0   0   0   0   8   0   8   1 102
   8   0   8   0   0   0   0  10   0   0   0   0   0   0   0   0   6   0   0   0   0   0   0   0   0   0   0   0   0   0   0   1 102
   6   0   0   0   0   0   0   0   0   0   0   0   7   0   0   0   0   0   0   0   0   0   0   4   0   0   0   0   0   0   0   1 102
   0   0   0   0   0   0   0   0   0   0   0   0   0   0   0   0   0   0   0   0   0   0   0   0   0   0   0   0   0   0   0   0 
